(set-info :smt-lib-version 2.6)
(set-logic QF_UFLRA)
(set-info :source |
MathSat group

|)
(set-info :category "random")
(set-info :status unsat)
(declare-fun f0_1 (Real) Real)
(declare-fun f0_2 (Real Real) Real)
(declare-fun f0_3 (Real Real Real) Real)
(declare-fun f0_4 (Real Real Real Real) Real)
(declare-fun f1_1 (Real) Real)
(declare-fun f1_2 (Real Real) Real)
(declare-fun f1_3 (Real Real Real) Real)
(declare-fun f1_4 (Real Real Real Real) Real)
(declare-fun x0 () Real)
(declare-fun x1 () Real)
(declare-fun x2 () Real)
(declare-fun x3 () Real)
(declare-fun x4 () Real)
(declare-fun x5 () Real)
(declare-fun x6 () Real)
(declare-fun x7 () Real)
(declare-fun x8 () Real)
(declare-fun x9 () Real)
(declare-fun x10 () Real)
(declare-fun x11 () Real)
(declare-fun x12 () Real)
(declare-fun x13 () Real)
(declare-fun x14 () Real)
(declare-fun x15 () Real)
(declare-fun x16 () Real)
(declare-fun x17 () Real)
(declare-fun x18 () Real)
(declare-fun x19 () Real)
(declare-fun x20 () Real)
(declare-fun x21 () Real)
(declare-fun x22 () Real)
(declare-fun x23 () Real)
(declare-fun x24 () Real)
(declare-fun x25 () Real)
(declare-fun x26 () Real)
(declare-fun x27 () Real)
(declare-fun x28 () Real)
(declare-fun x29 () Real)
(declare-fun P0 () Bool)
(declare-fun P1 () Bool)
(declare-fun P2 () Bool)
(declare-fun P3 () Bool)
(declare-fun P4 () Bool)
(declare-fun P5 () Bool)
(declare-fun P6 () Bool)
(declare-fun P7 () Bool)
(declare-fun P8 () Bool)
(declare-fun P9 () Bool)
(declare-fun P10 () Bool)
(declare-fun P11 () Bool)
(declare-fun P12 () Bool)
(declare-fun P13 () Bool)
(declare-fun P14 () Bool)
(declare-fun P15 () Bool)
(declare-fun P16 () Bool)
(declare-fun P17 () Bool)
(declare-fun P18 () Bool)
(declare-fun P19 () Bool)
(declare-fun P20 () Bool)
(declare-fun P21 () Bool)
(declare-fun P22 () Bool)
(declare-fun P23 () Bool)
(declare-fun P24 () Bool)
(declare-fun P25 () Bool)
(declare-fun P26 () Bool)
(declare-fun P27 () Bool)
(declare-fun P28 () Bool)
(declare-fun P29 () Bool)
(assert (let ((?v_143 (f1_1 x10)) (?v_6 (f1_1 x16)) (?v_0 (f0_2 x19 x16)) (?v_127 (- (+ (* 26 x21) (* 23 x17)) (* 22 x20))) (?v_281 (- (- (* 23 x14) (* 22 x11)) (* 29 x13))) (?v_249 (f0_1 x17)) (?v_14 (f1_1 x3)) (?v_28 (f1_1 x27)) (?v_49 (f0_2 x9 x4)) (?v_66 (f0_1 x24)) (?v_27 (f1_2 x23 x16)) (?v_248 (f0_2 x25 x1)) (?v_68 (f0_1 x20)) (?v_16 (f1_2 x29 x22)) (?v_7 (f0_1 x2)) (?v_24 (* 3 x7))) (let ((?v_48 (- (- ?v_24 (* 11 x8)) (* 20 x18))) (?v_177 (f1_1 x25)) (?v_37 (f1_2 x16 x7)) (?v_55 (f0_2 x6 x3)) (?v_30 (f0_2 ?v_7 ?v_7)) (?v_39 (f0_2 x14 x29)) (?v_15 (- (+ (* 22 x3) (* 16 x7)) (* 14 x2))) (?v_47 (* 17 x24)) (?v_106 (f0_2 x23 x29)) (?v_12 (f0_1 x28)) (?v_215 (+ (- (* 22 x10) (* 21 x26)) (* 12 x13))) (?v_87 (* 5 x2)) (?v_9 (f1_1 x24)) (?v_23 (f0_2 x15 x28)) (?v_96 (f1_1 x9)) (?v_41 (f1_2 x5 x12))) (let ((?v_82 (f0_2 (f1_2 x15 x14) ?v_48)) (?v_44 (f0_2 x3 x16)) (?v_270 (< ?v_106 21)) (?v_326 (< ?v_41 8)) (?v_45 (< ?v_6 5))) (let ((?v_124 (= ?v_82 ?v_49)) (?v_241 (< x15 27)) (?v_338 (= ?v_16 x29)) (?v_97 (< ?v_23 8)) (?v_218 (< ?v_48 4)) (?v_260 (= ?v_14 ?v_14)) (?v_191 (< (f0_1 x13) 9)) (?v_67 (= (f1_1 x20) ?v_37)) (?v_60 (< x18 1)) (?v_111 (< x18 15)) (?v_26 (< (f1_2 x17 x23) 19)) (?v_117 (< ?v_28 10)) (?v_160 (< ?v_66 14)) (?v_70 (< x4 21)) (?v_128 (< ?v_44 0)) (?v_74 (= x0 ?v_7)) (?v_119 (< ?v_27 2)) (?v_17 (< ?v_48 9)) (?v_120 (< x19 6)) (?v_308 (< (+ (- (* 23 ?v_248) (* 7 ?v_249)) (* 9 x3)) 11)) (?v_71 (< ?v_9 0)) (?v_212 (< ?v_127 22)) (?v_336 (< ?v_143 0)) (?v_242 (< (f0_1 x1) 11)) (?v_95 (< ?v_96 16)) (?v_211 (< ?v_44 23)) (?v_247 (< ?v_66 21)) (?v_110 (< x14 11)) (?v_354 (< x6 0)) (?v_140 (< ?v_9 11)) (?v_180 (< ?v_66 9)) (?v_94 (< (f0_2 x10 x4) 18)) (?v_104 (< ?v_82 24)) (?v_182 (< ?v_248 25)) (?v_298 (< ?v_41 20)) (?v_108 (< ?v_106 28)) (?v_36 (< ?v_30 1)) (?v_205 (= x18 (f1_2 x12 x0))) (?v_107 (= ?v_9 x25)) (?v_226 (= x20 ?v_14)) (?v_235 (< ?v_27 14)) (?v_316 (< (f0_1 ?v_0) 18)) (?v_64 (< ?v_0 19)) (?v_227 (< ?v_66 0)) (?v_118 (< x0 13)) (?v_99 (= ?v_15 ?v_68)) (?v_332 (not P28)) (?v_172 (not P20))) (let ((?v_163 (not ?v_110)) (?v_263 (not ?v_97)) (?v_21 (not ?v_45)) (?v_8 (not P12)) (?v_356 (not (< x2 3))) (?v_292 (not P19)) (?v_279 (not P23)) (?v_187 (not P5)) (?v_377 (not ?v_26)) (?v_161 (not ?v_235)) (?v_269 (not ?v_60)) (?v_185 (not ?v_111)) (?v_100 (not P15)) (?v_65 (not P17)) (?v_198 (not P14)) (?v_61 (not P2)) (?v_358 (not P6)) (?v_130 (not P22)) (?v_373 (not ?v_128)) (?v_290 (not ?v_298)) (?v_51 (not P21)) (?v_131 (not ?v_36)) (?v_125 (not P13)) (?v_351 (not ?v_99)) (?v_81 (not ?v_74)) (?v_168 (not ?v_182)) (?v_347 (not P0)) (?v_225 (not ?v_160)) (?v_165 (not ?v_119)) (?v_287 (not ?v_95)) (?v_342 (not ?v_104)) (?v_173 (not ?v_17)) (?v_296 (not ?v_118)) (?v_134 (not P25)) (?v_245 (not ?v_120)) (?v_232 (not P29)) (?v_259 (not P4)) (?v_261 (not ?v_64)) (?v_343 (not ?v_140)) (?v_195 (not P7)) (?v_162 (not ?v_336)) (?v_300 (not P26)) (?v_164 (not ?v_117)) (?v_264 (not P16)) (?v_315 (not ?v_180)) (?v_291 (not P18)) (?v_314 (not P10)) (?v_222 (not ?v_270)) (?v_210 (not ?v_205)) (?v_244 (not P3)) (?v_231 (not ?v_107)) (?v_255 (not P9)) (?v_275 (not ?v_218)) (?v_317 (not ?v_247)) (?v_267 (not ?v_71)) (?v_258 (not ?v_226)) (?v_370 (not ?v_227)) (?v_246 (not ?v_70)) (?v_359 (not ?v_211)) (?v_252 (not ?v_241)) (?v_337 (not ?v_308)) (?v_322 (not P11)) (?v_266 (not ?v_67)) (?v_365 (not ?v_260)) (?v_277 (not ?v_242)) (?v_379 (not P27)) (?v_339 (not P24)) (?v_350 (not ?v_124)) (?v_357 (not P1)) (?v_349 (not ?v_212)) (?v_371 (not ?v_316)) (?v_334 (not ?v_94)) (?v_340 (not ?v_108)) (?v_378 (not P8)) (?v_361 (not ?v_354)) (?v_32 (+ (* 16 ?v_6) (* 10 ?v_143) (* 26 x27))) (?v_144 (= ?v_41 (+ (* 10 x0) (* 14 x16) (* 2 x17))))) (let ((?v_77 (not ?v_144)) (?v_20 (+ (* 27 x27) (* 10 x23) (* 22 x14))) (?v_178 (- (+ x29 (* 28 x23)) (* 19 x19)))) (let ((?v_35 (< ?v_178 27))) (let ((?v_90 (not ?v_35)) (?v_91 (+ (* 3 x28) (* 14 x5) (* 17 x27))) (?v_78 (< ?v_20 24))) (let ((?v_268 (not ?v_78)) (?v_54 (< ?v_32 0))) (let ((?v_59 (not ?v_54)) (?v_199 (= x3 (+ (* 5 x11) (* 25 x4) (* 9 x15))))) (let ((?v_186 (not ?v_199)) (?v_123 (+ (* 29 x27) ?v_87 (* 6 x5)))) (let ((?v_167 (< ?v_123 18)) (?v_189 (< ?v_123 16)) (?v_193 (= ?v_177 ?v_178))) (let ((?v_303 (not ?v_193)) (?v_200 (not ?v_167)) (?v_257 (not ?v_189)) (?v_271 (< (- (+ x10 (* 22 x29)) (* 20 x15)) 28))) (let ((?v_299 (not ?v_271)) (?v_38 (- (- (* (- 4) x18) (* 9 x23)) (* 23 x16))) (?v_10 (+ (* (- 10) ?v_66) (* 7 ?v_68) (* 3 (f0_2 x24 x24))))) (let ((?v_34 (f0_2 ?v_38 ?v_10))) (let ((?v_93 (< ?v_34 (- 28))) (?v_57 (< ?v_49 (- 3)))) (let ((?v_152 (not ?v_57)) (?v_105 (< ?v_44 (- 8)))) (let ((?v_86 (not ?v_105)) (?v_11 (< ?v_0 (- 9)))) (let ((?v_2 (not ?v_11)) (?v_328 (< (f1_1 x12) (- 5)))) (let ((?v_3 (not ?v_328)) (?v_1 (< ?v_16 (- 2)))) (let ((?v_112 (not ?v_1)) (?v_4 (+ (- (* (- 10) x27) (* 19 x7)) (* 17 x29)))) (let ((?v_18 (= ?v_4 ?v_12)) (?v_84 (< (f1_1 x15) (- 21))) (?v_129 (< ?v_32 (- 9)))) (let ((?v_53 (not ?v_129)) (?v_50 (< ?v_249 (- 21)))) (let ((?v_138 (not ?v_50)) (?v_236 (< ?v_15 (- 22))) (?v_43 (< ?v_20 (- 12))) (?v_132 (< x14 (- 22)))) (let ((?v_33 (not ?v_132)) (?v_103 (- (- (* (- 20) x7) ?v_47) (* 17 x11)))) (let ((?v_25 (f0_2 ?v_103 (f0_1 ?v_4)))) (let ((?v_5 (< ?v_25 (- 5)))) (let ((?v_153 (not ?v_5)) (?v_63 (< ?v_10 3)) (?v_217 (< x24 (- 27))) (?v_69 (- (- (* (- 6) x4) (* 27 x26)) (* 11 x24)))) (let ((?v_42 (= ?v_69 ?v_4)) (?v_324 (= (- (+ (* (- 5) x2) (* 26 x24)) (* 28 x15)) x26))) (let ((?v_141 (not ?v_324)) (?v_155 (< (f1_2 ?v_215 ?v_12) (- 11))) (?v_13 (+ (- (* (- 19) x18) (* 23 x6)) (* 10 x15)))) (let ((?v_56 (f0_2 ?v_27 ?v_13))) (let ((?v_58 (< ?v_56 3))) (let ((?v_121 (not ?v_58)) (?v_40 (+ (- (* 15 ?v_13) (* 14 x13)) (* 10 ?v_14)))) (let ((?v_251 (= ?v_40 ?v_15))) (let ((?v_360 (not ?v_251)) (?v_147 (< ?v_16 (- 22))) (?v_19 (< ?v_91 (- 25)))) (let ((?v_297 (not ?v_19)) (?v_80 (< ?v_7 (- 2)))) (let ((?v_228 (not ?v_80)) (?v_233 (< x5 (- 7)))) (let ((?v_22 (not ?v_233)) (?v_31 (< ?v_281 (- 26))) (?v_29 (+ (* (- 13) x17) (* 21 x20) (* 17 x22)))) (let ((?v_158 (< ?v_29 (- 26))) (?v_265 (< ?v_23 (- 18)))) (let ((?v_312 (not ?v_265)) (?v_62 (- (- (* (- 3) x24) (* 6 x18)) ?v_24))) (let ((?v_89 (= ?v_62 ?v_25)) (?v_75 (< (- (- (* (- 12) x2) (* 23 x1)) (* 24 x6)) (- 15))) (?v_331 (< (+ (- (* (- 29) ?v_28) (* 22 x28)) (* 9 ?v_28)) (- 28)))) (let ((?v_368 (not ?v_331)) (?v_341 (< x25 (- 7)))) (let ((?v_366 (not ?v_341)) (?v_73 (= ?v_29 ?v_30)) (?v_190 (< ?v_0 (- 27))) (?v_139 (< ?v_34 (- 10))) (?v_46 (< (f1_1 x28) (- 24))) (?v_85 (< (f0_2 x28 x25) (- 21))) (?v_280 (+ (* (- 1) ?v_37) (* 19 ?v_27) (* 7 ?v_55)))) (let ((?v_52 (< ?v_280 (- 20))) (?v_206 (< ?v_39 (- 2))) (?v_301 (= (+ (* (- 4) ?v_32) (* 6 (- (- (* 23 ?v_38) (* 20 ?v_39)) (* 27 ?v_40))) (* 8 ?v_41)) ?v_30))) (let ((?v_203 (not ?v_301)) (?v_202 (< (+ (- (* (- 1) x11) (* 28 x8)) (* 21 x2)) (- 28))) (?v_154 (< (+ (* (- 9) x24) (* 19 x27) (* 8 x26)) (- 16)))) (let ((?v_126 (not ?v_154)) (?v_114 (< ?v_13 (- 12)))) (let ((?v_262 (not ?v_114)) (?v_333 (< ?v_106 (- 16)))) (let ((?v_149 (not ?v_333)) (?v_98 (- (+ (* (- 21) x7) (* 14 x12)) ?v_47))) (let ((?v_113 (< ?v_98 29)) (?v_151 (< x17 (- 12)))) (let ((?v_122 (not ?v_151)) (?v_115 (< ?v_49 (- 25))) (?v_72 (< (f1_2 x16 x17) (- 18))) (?v_148 (= (+ (- ?v_87 (* 5 x14)) (* 24 x24)) (+ (- (* 24 ?v_55) (* 13 ?v_177)) (* 10 ?v_56))))) (let ((?v_181 (not ?v_148)) (?v_169 (* (- 8) x23))) (let ((?v_102 (+ (- ?v_169 (* 17 x21)) (* 7 x5)))) (let ((?v_76 (+ (- (* (- 8) ?v_56) (* 21 ?v_102)) (* 14 ?v_127)))) (let ((?v_256 (= ?v_55 ?v_76))) (let ((?v_83 (not ?v_256)) (?v_273 (< ?v_62 (- 26)))) (let ((?v_335 (not ?v_273)) (?v_101 (not ?v_63)) (?v_88 (< ?v_56 (- 19))) (?v_305 (< x11 (- 16)))) (let ((?v_220 (not ?v_305)) (?v_171 (< (- (+ (* 7 x25) (* 15 x24)) (* 11 x18)) (- 3)))) (let ((?v_109 (not ?v_171)) (?v_159 (not ?v_31)) (?v_170 (< ?v_69 21))) (let ((?v_150 (not ?v_170)) (?v_135 (< (+ (- (* 25 x27) (* 8 x15)) (* 19 x22)) (- 4)))) (let ((?v_92 (not ?v_135)) (?v_197 (not ?v_72)) (?v_116 (not ?v_73)) (?v_79 (< x24 (- 14)))) (let ((?v_194 (not ?v_79)) (?v_184 (not ?v_75)) (?v_146 (< ?v_76 4)) (?v_137 (not ?v_85)) (?v_208 (< x16 (- 5)))) (let ((?v_221 (not ?v_208)) (?v_156 (< ?v_12 (- 22)))) (let ((?v_213 (not ?v_156)) (?v_183 (not ?v_88)) (?v_207 (< (- (- (* (- 28) x24) (* 6 x21)) (* 14 x14)) 19))) (let ((?v_234 (not ?v_207)) (?v_176 (not ?v_89)) (?v_175 (< ?v_91 (- 10))) (?v_204 (not ?v_93)) (?v_157 (= x14 (f0_2 ?v_69 x14))) (?v_304 (< ?v_96 (- 10))) (?v_250 (< x4 (- 12)))) (let ((?v_285 (not ?v_250)) (?v_142 (< (f0_2 ?v_6 ?v_98) (- 19)))) (let ((?v_364 (not ?v_142)) (?v_133 (< x16 (- 1)))) (let ((?v_318 (not ?v_133)) (?v_216 (< (+ (- (* (- 28) ?v_102) (* 6 x12)) (* 2 ?v_103)) (- 3))) (?v_214 (not ?v_52)) (?v_174 (< ?v_4 21)) (?v_229 (< (- (+ (* 3 x10) (* 4 x15)) (* 17 x16)) (- 28)))) (let ((?v_136 (not ?v_229)) (?v_179 (< ?v_127 (- 21))) (?v_239 (< x27 (- 8))) (?v_145 (< ?v_68 (- 11))) (?v_196 (not ?v_146)) (?v_374 (not ?v_147)) (?v_166 (< x12 (- 19))) (?v_288 (not ?v_155)) (?v_346 (< ?v_76 (- 27))) (?v_321 (not ?v_158))) (let ((?v_294 (not ?v_166)) (?v_282 (- (+ ?v_169 (* 26 x20)) (* 3 x29)))) (let ((?v_188 (< ?v_282 16)) (?v_201 (not ?v_174)) (?v_209 (< ?v_102 (- 23))) (?v_344 (not ?v_179)) (?v_353 (< ?v_25 (- 2)))) (let ((?v_286 (not ?v_353)) (?v_238 (- (- (* (- 13) x22) x18) (* 15 x25)))) (let ((?v_192 (= ?v_32 ?v_238)) (?v_293 (= ?v_25 ?v_6)) (?v_237 (< ?v_103 10)) (?v_284 (not ?v_188)) (?v_223 (not ?v_190)) (?v_272 (not ?v_206)) (?v_224 (not ?v_46)) (?v_219 (not ?v_209)) (?v_276 (< ?v_215 (- 26))) (?v_274 (not ?v_216)) (?v_306 (not ?v_175)) (?v_230 (not ?v_157)) (?v_345 (not ?v_113)) (?v_313 (< (f0_1 ?v_23) (- 29)))) (let ((?v_278 (not ?v_313)) (?v_240 (< x11 (- 9))) (?v_327 (not ?v_236)) (?v_254 (= ?v_238 x19)) (?v_323 (not ?v_239)) (?v_243 (not ?v_192)) (?v_367 (not ?v_115)) (?v_289 (< x22 (- 24)))) (let ((?v_253 (not ?v_289)) (?v_330 (< x21 (- 24)))) (let ((?v_283 (not ?v_330)) (?v_319 (not ?v_217)) (?v_309 (= (f1_2 x28 x13) (- (- (* 20 ?v_280) (* 12 ?v_20)) (* 9 ?v_281)))) (?v_375 (< ?v_282 (- 7)))) (let ((?v_307 (not ?v_375)) (?v_310 (not ?v_42)) (?v_311 (not ?v_84)) (?v_295 (not ?v_237)) (?v_372 (not ?v_293)) (?v_302 (not ?v_276)) (?v_355 (not ?v_139)) (?v_348 (not ?v_240)) (?v_320 (not ?v_43)) (?v_325 (not ?v_202)) (?v_369 (< x0 (- 18)))) (let ((?v_329 (not ?v_369)) (?v_352 (not ?v_304)) (?v_362 (not ?v_346)) (?v_363 (not ?v_145)) (?v_376 (not ?v_18))) (and (and (and (and (and (and (and (and (and (and (and (and (and (and (and (and (and (and (and (and (and (and (and (and (and (and (and (and (and (and (and (and (and (and (and (and (and (and (and (and (and (and (and (and (and (and (and (and (and (and (and (and (and (and (and (and (and (and (and (and (and (and (and (and (and (and (and (and (and (and (and (and (and (and (and (and (and (and (and (and (and (and (and (and (and (and (and (and (and (and (and (and (and (and (and (and (and (and (and (and (and (and (and (and (and (and (and (and (and (and (and (and (and (and (and (and (and (and (and (and (and (and (and (and (and (and (and (and (and (and (and (and (and (and (and (and (and (and (and (and (and (and (and (and (and (and (and (and (and (and (and (and (and (and (and (and (and (and (and (and (and (and (and (and (and (and (and (and (and (and (and (and (and (and (and (and (and (and (and (and (and (and (and (and (and (and (and (and (and (and (and (and (and (and (and (and (and (and (and (and (and (and (and (and (and (and (and (and (and (and (and (and (and (and (and (and (and (and (and (and (and (and (and (and (and (and (and (and (and (and (and (and (and (and (and (and (and (and (and (and (and (and (and (and (and (and (and (and (and (and (and (and (and (and (and (and (and (and (and (and (and (and (and (and (and (and (and (and (and (and (and (and (and (and (and (and (and (and (and (and (and (and (and (and (and (and (and (and (and (and (and (and (and (and (and (and (and (and (and (and (and (and (and (and (and (and (and (and (and (and (and (and (and (and (and (and (and (and (and (and (and (and (and (and (and (and (and (and (and (and (and (and (and (and (and (and (and (and (and (and (and (and (and (and (and (and (and (and (and (and (and (and (and (and (and (and (and (and (and (and (and (and (and (and (and (and (and (and (and (and (and (and (and (and (and (and (and (and (and (and (and (and (and (and (and (and (and (and (and (and (and (and (and (and (and (and (and (and (and (and (and (and (and (and (and (and (and (and (and (and (and (and (and (and (and (and (and (and (and (and (and (and (and (and (and (and (and (and (and (and (and (and (and (and (and (and (and (and (and (and (and (and (and (and (and (and (and (and (and (and (and (and (and (and (and (and (and (and (and (and (and (and (and (and (and (and (and (and (and (and (and (and (and (and (and (and (and (and (and (and (and (and (and (and (and (and (and (and (and (and (and (and (and (and (and (and (and (and (and (and (and (and (and (and (and (and (and (and (and (and (and (and (and (and (and (and (and (and (and (and (and (and (and (and (and (and (and (and (and (and (and (and (and (and (and (and (and (and (and (and (and (and (and (and (and (and (and (and (and (and (and (and (and (and (and (and (and (and (and (and (and (and (and (and (and (and (and (and (and (and (and (and (and (and (and (and (and (and (and (and (and (and (and (and (and (and (and (and (and (and (and (and (and (and (and (and (and (and (and (and (and (and (and (and (and (and (and (and (and (and (and (and (and (and (and (and (and (and (and (and (and (and (and (and (and (and (and (and (and (and (and (and (and (and (and (and (and (and (and (and (and (and (and (and (and (and (and (and (and (and (and (and (and (and (and (and (and (and (and (and (and (and (and (and (and (and (and (and (and (and (and (and (and (and (and (and (and (and (and (and (and (and (and (and (and (and (and (and (and (and (and (and (and (and (and (and (and (and (and (and (and (and (and (and (and (and (and (and (and (and (and (and (and (and (and (and (and (and (and (and (and (and (and (and (and (and (and (and (and (and (and (and (and (and (and (and (and (and (and (and (and (and (and (and (and (and (and (and (and (or (or ?v_118 ?v_93) ?v_152) (or (or ?v_332 ?v_172) ?v_86)) (or (or ?v_2 ?v_140) ?v_3)) (or (or ?v_163 ?v_112) ?v_64)) (or (or ?v_18 ?v_263) ?v_84)) (or (or ?v_53 ?v_138) ?v_236)) (or (or ?v_77 ?v_43) ?v_1)) (or (or ?v_2 ?v_3) ?v_33)) (or (or ?v_153 ?v_17) ?v_26)) (or (or ?v_226 ?v_5) P28)) (or (or ?v_21 ?v_8) ?v_90)) (or (or ?v_74 ?v_36) P19)) (or (or ?v_8 ?v_71) ?v_63)) (or (or ?v_217 ?v_107) ?v_42)) (or (or ?v_141 ?v_356) ?v_11)) (or (or ?v_155 ?v_121) ?v_360)) (or (or ?v_147 ?v_17) ?v_19)) (or (or ?v_18 P2) ?v_297)) (or (or ?v_228 ?v_22) P18)) (or (or ?v_268 ?v_292) P26)) (or (or ?v_21 P26) ?v_31)) (or (or ?v_22 ?v_158) ?v_279)) (or (or ?v_187 ?v_312) ?v_8)) (or (or ?v_89 ?v_75) ?v_377)) (or (or ?v_161 ?v_368) ?v_366)) (or (or ?v_73 ?v_31) ?v_67)) (or (or ?v_190 ?v_269) P19)) (or (or ?v_185 ?v_100) P20)) (or (or ?v_65 ?v_59) ?v_33)) (or (or ?v_205 ?v_139) ?v_35)) (or (or ?v_46 ?v_36) ?v_186)) (or (or ?v_198 ?v_85) ?v_61)) (or (or ?v_52 ?v_206) ?v_203)) (or (or ?v_202 ?v_358) ?v_126)) (or (or ?v_130 ?v_42) ?v_43)) (or (or ?v_373 ?v_45) ?v_3)) (or (or ?v_262 ?v_46) ?v_149)) (or (or ?v_113 ?v_290) ?v_104)) (or (or ?v_122 P27) ?v_51)) (or (or ?v_115 ?v_50) ?v_51)) (or (or ?v_72 ?v_52) ?v_53)) (or (or P24 ?v_94) ?v_54)) (or (or ?v_181 ?v_57) ?v_58)) (or (or ?v_59 ?v_60) ?v_83)) (or (or ?v_61 ?v_335) ?v_53)) (or (or ?v_70 ?v_101) ?v_88)) (or (or ?v_220 ?v_131) ?v_125)) (or (or ?v_64 P4) ?v_109)) (or (or ?v_159 ?v_95) ?v_65)) (or (or P10 ?v_60) ?v_180)) (or (or ?v_67 ?v_351) ?v_211)) (or (or ?v_150 ?v_70) ?v_1)) (or (or P25 ?v_92) ?v_71)) (or (or ?v_197 ?v_116) ?v_194)) (or (or ?v_81 ?v_184) ?v_50)) (or (or ?v_146 ?v_77) P2)) (or (or ?v_78 ?v_79) ?v_80)) (or (or P25 ?v_81) P17)) (or (or ?v_124 ?v_83) ?v_84)) (or (or ?v_191 ?v_51) ?v_168)) (or (or ?v_347 ?v_137) ?v_227)) (or (or P21 ?v_58) ?v_86)) (or (or ?v_58 ?v_11) ?v_225)) (or (or ?v_221 ?v_213) ?v_167)) (or (or ?v_183 ?v_234) ?v_176)) (or (or ?v_90 ?v_175) ?v_165)) (or (or ?v_92 ?v_204) ?v_94)) (or (or P15 ?v_77) ?v_157)) (or (or ?v_287 ?v_304) ?v_97)) (or (or ?v_19 ?v_285) ?v_364)) (or (or ?v_318 P9) ?v_99)) (or (or ?v_100 ?v_101) ?v_216)) (or (or ?v_342 ?v_173) ?v_105)) (or (or ?v_117 ?v_214) ?v_108)) (or (or ?v_26 ?v_85) ?v_107)) (or (or P12 ?v_108) ?v_109)) (or (or ?v_110 ?v_111) ?v_112)) (or (or ?v_113 ?v_114) ?v_115)) (or (or ?v_120 ?v_116) P14)) (or (or ?v_117 P18) ?v_296)) (or (or ?v_134 ?v_119) ?v_174)) (or (or ?v_245 ?v_121) ?v_122)) (or (or ?v_112 ?v_189) ?v_124)) (or (or ?v_125 ?v_126) ?v_232)) (or (or ?v_212 ?v_128) ?v_129)) (or (or ?v_130 ?v_84) ?v_136)) (or (or ?v_131 ?v_259) ?v_179)) (or (or ?v_59 ?v_132) ?v_133)) (or (or ?v_134 ?v_65) ?v_118)) (or (or ?v_135 ?v_239) ?v_136)) (or (or P24 ?v_261) ?v_137)) (or (or ?v_138 ?v_65) ?v_139)) (or (or ?v_343 ?v_141) ?v_129)) (or (or ?v_142 ?v_195) ?v_145)) (or (or ?v_162 ?v_144) P21)) (or (or ?v_53 ?v_145) ?v_22)) (or (or ?v_196 ?v_374) ?v_300)) (or (or ?v_148 ?v_92) ?v_67)) (or (or ?v_149 ?v_150) ?v_89)) (or (or ?v_151 ?v_152) ?v_153)) (or (or ?v_154 ?v_166) ?v_42)) (or (or ?v_288 ?v_8) ?v_346)) (or (or ?v_35 ?v_156) ?v_2)) (or (or ?v_157 ?v_1) ?v_321)) (or (or ?v_159 ?v_160) ?v_141)) (or (or ?v_161 ?v_162) ?v_72)) (or (or ?v_163 ?v_164) ?v_101)) (or (or ?v_164 ?v_165) ?v_294)) (or (or ?v_167 ?v_133) ?v_168)) (or (or ?v_188 ?v_170) ?v_171)) (or (or ?v_121 ?v_172) ?v_173)) (or (or ?v_149 ?v_201) ?v_175)) (or (or P4 ?v_264) ?v_43)) (or (or ?v_176 ?v_303) ?v_209)) (or (or ?v_72 ?v_344) ?v_165)) (or (or P7 ?v_168) ?v_154)) (or (or ?v_97 ?v_315) ?v_43)) (or (or ?v_286 P11) P24)) (or (or ?v_121 ?v_110) ?v_181)) (or (or P2 ?v_149) ?v_291)) (or (or ?v_182 ?v_80) P19)) (or (or ?v_314 ?v_192) ?v_200)) (or (or ?v_183 ?v_293) ?v_184)) (or (or ?v_185 ?v_116) ?v_131)) (or (or ?v_186 ?v_80) P29)) (or (or ?v_222 ?v_162) ?v_187)) (or (or ?v_237 P4) ?v_284)) (or (or ?v_257 ?v_33) ?v_94)) (or (or ?v_156 ?v_151) ?v_46)) (or (or ?v_223 ?v_189) ?v_146)) (or (or ?v_191 ?v_192) ?v_130)) (or (or ?v_193 ?v_194) ?v_195)) (or (or ?v_33 ?v_196) ?v_197)) (or (or ?v_140 ?v_198) P10)) (or (or ?v_199 P27) P23)) (or (or ?v_93 ?v_156) ?v_200)) (or (or ?v_42 ?v_201) ?v_202)) (or (or ?v_203 ?v_204) ?v_117)) (or (or ?v_60 ?v_75) ?v_189)) (or (or ?v_60 ?v_210) ?v_272)) (or (or ?v_244 ?v_180) ?v_231)) (or (or ?v_224 ?v_92) ?v_81)) (or (or ?v_207 ?v_208) ?v_131)) (or (or ?v_219 ?v_210) ?v_50)) (or (or ?v_211 ?v_255) P17)) (or (or ?v_212 ?v_78) ?v_209)) (or (or ?v_210 ?v_202) ?v_70)) (or (or ?v_260 ?v_213) ?v_63)) (or (or ?v_214 ?v_218) ?v_201)) (or (or ?v_242 ?v_84) P1)) (or (or ?v_110 ?v_276) ?v_142)) (or (or ?v_274 ?v_159) ?v_217)) (or (or P2 ?v_8) ?v_275)) (or (or ?v_219 ?v_108) ?v_17)) (or (or ?v_306 ?v_220) ?v_190)) (or (or ?v_221 ?v_317) ?v_72)) (or (or ?v_222 ?v_108) ?v_116)) (or (or ?v_223 ?v_73) P18)) (or (or ?v_45 ?v_267) ?v_153)) (or (or ?v_224 ?v_225) ?v_258)) (or (or ?v_164 ?v_185) ?v_241)) (or (or ?v_164 ?v_163) ?v_370)) (or (or ?v_230 ?v_138) ?v_345)) (or (or ?v_94 P8) ?v_228)) (or (or ?v_168 ?v_278) ?v_229)) (or (or ?v_116 ?v_230) ?v_227)) (or (or ?v_240 P9) ?v_225)) (or (or ?v_137 ?v_173) P28)) (or (or ?v_85 ?v_218) ?v_231)) (or (or ?v_142 ?v_85) ?v_125)) (or (or ?v_232 ?v_233) ?v_246)) (or (or ?v_116 ?v_173) ?v_84)) (or (or ?v_359 ?v_61) ?v_234)) (or (or ?v_235 ?v_194) ?v_154)) (or (or ?v_327 ?v_222) ?v_237)) (or (or ?v_254 ?v_158) ?v_149)) (or (or ?v_323 P25) ?v_243)) (or (or ?v_134 ?v_130) ?v_240)) (or (or ?v_58 ?v_252) ?v_164)) (or (or P7 ?v_299) ?v_179)) (or (or ?v_95 ?v_242) ?v_243)) (or (or ?v_194 ?v_244) ?v_245)) (or (or ?v_195 ?v_367) ?v_246)) (or (or ?v_209 ?v_247) ?v_337)) (or (or ?v_205 ?v_250) ?v_81)) (or (or P5 ?v_137) ?v_151)) (or (or ?v_132 ?v_163) ?v_253)) (or (or ?v_187 ?v_237) ?v_33)) (or (or ?v_182 ?v_251) ?v_43)) (or (or ?v_203 ?v_322) ?v_252)) (or (or ?v_253 ?v_163) ?v_154)) (or (or ?v_77 ?v_224) ?v_254)) (or (or ?v_266 ?v_255) ?v_242)) (or (or ?v_256 ?v_257) ?v_258)) (or (or ?v_259 ?v_365) ?v_228)) (or (or P13 ?v_261) ?v_36)) (or (or ?v_262 ?v_263) ?v_264)) (or (or ?v_125 ?v_283) ?v_265)) (or (or P19 ?v_266) P27)) (or (or ?v_267 ?v_268) ?v_269)) (or (or ?v_319 ?v_244) ?v_247)) (or (or ?v_204 ?v_139) ?v_267)) (or (or ?v_270 P27) P29)) (or (or ?v_271 ?v_201) ?v_277)) (or (or ?v_272 ?v_188) ?v_126)) (or (or ?v_174 ?v_193) ?v_151)) (or (or ?v_198 ?v_1) P3)) (or (or ?v_11 ?v_198) ?v_187)) (or (or ?v_273 ?v_274) ?v_275)) (or (or ?v_209 ?v_255) ?v_164)) (or (or ?v_276 ?v_242) ?v_168)) (or (or ?v_140 ?v_172) ?v_277)) (or (or ?v_278 ?v_175) ?v_279)) (or (or ?v_43 ?v_309) ?v_19)) (or (or ?v_232 P17) ?v_17)) (or (or ?v_58 P11) ?v_307)) (or (or ?v_258 ?v_212) P19)) (or (or ?v_283 ?v_284) ?v_75)) (or (or ?v_310 ?v_94) P12)) (or (or ?v_181 ?v_94) ?v_285)) (or (or ?v_269 ?v_219) ?v_286)) (or (or ?v_287 ?v_70) ?v_59)) (or (or ?v_260 ?v_120) ?v_288)) (or (or ?v_22 ?v_126) ?v_174)) (or (or ?v_85 ?v_125) ?v_116)) (or (or ?v_311 P28) ?v_167)) (or (or P17 ?v_246) ?v_379)) (or (or ?v_226 ?v_165) ?v_77)) (or (or ?v_182 ?v_214) P8)) (or (or ?v_54 ?v_21) ?v_220)) (or (or ?v_289 ?v_18) ?v_290)) (or (or ?v_295 P13) ?v_11)) (or (or ?v_291 P28) ?v_229)) (or (or ?v_17 ?v_31) ?v_244)) (or (or ?v_292 P1) ?v_198)) (or (or ?v_372 ?v_164) ?v_73)) (or (or ?v_254 ?v_244) ?v_250)) (or (or ?v_183 ?v_8) ?v_22)) (or (or ?v_339 ?v_264) ?v_58)) (or (or ?v_289 ?v_326) ?v_112)) (or (or ?v_85 ?v_161) ?v_316)) (or (or ?v_245 P29) ?v_8)) (or (or ?v_350 ?v_294) ?v_120)) (or (or ?v_97 ?v_201) ?v_167)) (or (or ?v_150 ?v_73) P16)) (or (or ?v_176 ?v_265) ?v_272)) (or (or ?v_137 ?v_291) ?v_213)) (or (or ?v_181 ?v_257) ?v_112)) (or (or ?v_295 ?v_296) ?v_22)) (or (or ?v_297 ?v_112) ?v_298)) (or (or ?v_193 ?v_153) ?v_8)) (or (or ?v_134 ?v_299) ?v_131)) (or (or ?v_151 P7) ?v_297)) (or (or ?v_300 ?v_301) ?v_35)) (or (or P0 P11) ?v_302)) (or (or P10 ?v_168) ?v_88)) (or (or ?v_110 ?v_140) ?v_101)) (or (or ?v_302 ?v_86) ?v_222)) (or (or ?v_181 ?v_135) ?v_42)) (or (or ?v_135 ?v_184) ?v_295)) (or (or ?v_296 ?v_138) ?v_221)) (or (or ?v_303 ?v_117) ?v_304)) (or (or ?v_168 P14) ?v_241)) (or (or ?v_105 P3) ?v_266)) (or (or ?v_305 ?v_63) ?v_36)) (or (or ?v_132 ?v_275) ?v_57)) (or (or ?v_251 ?v_233) ?v_67)) (or (or ?v_51 ?v_147) ?v_306)) (or (or ?v_190 ?v_293) ?v_83)) (or (or ?v_133 ?v_155) ?v_167)) (or (or ?v_168 ?v_208) ?v_212)) (or (or ?v_165 ?v_307) ?v_64)) (or (or ?v_354 ?v_146) ?v_75)) (or (or P17 ?v_288) ?v_304)) (or (or P0 ?v_212) ?v_201)) (or (or ?v_184 ?v_357) ?v_80)) (or (or ?v_101 ?v_174) ?v_150)) (or (or ?v_224 ?v_258) ?v_308)) (or (or ?v_166 ?v_258) ?v_293)) (or (or ?v_309 P2) ?v_74)) (or (or ?v_288 ?v_271) ?v_278)) (or (or ?v_175 ?v_300) ?v_151)) (or (or ?v_214 ?v_310) ?v_57)) (or (or ?v_63 ?v_160) ?v_145)) (or (or ?v_259 ?v_289) ?v_81)) (or (or ?v_311 ?v_105) ?v_312)) (or (or ?v_313 P4) ?v_216)) (or (or ?v_284 ?v_355) ?v_314)) (or (or ?v_296 ?v_185) ?v_186)) (or (or ?v_349 ?v_298) ?v_315)) (or (or ?v_348 ?v_194) ?v_118)) (or (or ?v_131 P29) ?v_320)) (or (or ?v_371 ?v_303) ?v_244)) (or (or P1 ?v_110) ?v_294)) (or (or ?v_146 ?v_202) ?v_111)) (or (or ?v_317 ?v_93) ?v_107)) (or (or ?v_223 P25) ?v_263)) (or (or ?v_142 ?v_286) ?v_67)) (or (or ?v_325 ?v_318) ?v_319)) (or (or ?v_43 ?v_237) ?v_100)) (or (or ?v_222 ?v_256) ?v_140)) (or (or ?v_243 ?v_131) ?v_113)) (or (or ?v_86 ?v_107) ?v_300)) (or (or ?v_155 ?v_202) ?v_46)) (or (or ?v_320 ?v_272) ?v_107)) (or (or ?v_126 ?v_147) ?v_151)) (or (or ?v_58 ?v_193) P18)) (or (or ?v_5 ?v_303) ?v_150)) (or (or ?v_144 ?v_205) ?v_268)) (or (or ?v_255 ?v_298) ?v_321)) (or (or ?v_240 ?v_253) ?v_235)) (or (or ?v_155 ?v_290) ?v_109)) (or (or ?v_255 ?v_338) ?v_322)) (or (or ?v_323 ?v_81) ?v_237)) (or (or ?v_311 ?v_324) ?v_325)) (or (or ?v_234 ?v_145) ?v_272)) (or (or ?v_334 P28) ?v_326)) (or (or ?v_228 ?v_262) ?v_329)) (or (or P19 ?v_18) P14)) (or (or ?v_125 ?v_93) ?v_273)) (or (or ?v_157 ?v_74) ?v_327)) (or (or ?v_188 ?v_258) ?v_328)) (or (or ?v_270 ?v_291) ?v_264)) (or (or ?v_317 ?v_64) ?v_104)) (or (or ?v_293 ?v_155) ?v_95)) (or (or ?v_329 ?v_330) ?v_331)) (or (or ?v_332 ?v_65) ?v_135)) (or (or ?v_138 ?v_54) ?v_158)) (or (or ?v_80 ?v_141) ?v_340)) (or (or ?v_36 ?v_161) ?v_113)) (or (or ?v_148 ?v_133) ?v_26)) (or (or ?v_84 ?v_291) ?v_260)) (or (or P7 ?v_237) ?v_60)) (or (or ?v_146 ?v_333) P23)) (or (or ?v_134 ?v_73) ?v_334)) (or (or ?v_129 ?v_335) P17)) (or (or ?v_324 ?v_113) ?v_336)) (or (or ?v_304 ?v_176) ?v_72)) (or (or ?v_166 ?v_293) ?v_194)) (or (or ?v_304 ?v_319) ?v_163)) (or (or P3 ?v_107) ?v_330)) (or (or ?v_226 ?v_225) ?v_252)) (or (or ?v_163 ?v_352) ?v_168)) (or (or ?v_220 ?v_289) ?v_120)) (or (or ?v_337 ?v_111) ?v_338)) (or (or ?v_339 ?v_188) ?v_74)) (or (or ?v_288 ?v_290) ?v_53)) (or (or ?v_129 ?v_225) ?v_174)) (or (or ?v_340 ?v_65) ?v_328)) (or (or ?v_224 ?v_244) ?v_89)) (or (or ?v_222 ?v_172) ?v_201)) (or (or (not ?v_309) ?v_232) ?v_341)) (or (or ?v_342 ?v_110) P29)) (or (or ?v_343 ?v_200) ?v_317)) (or (or ?v_338 ?v_325) ?v_247)) (or (or (not ?v_191) ?v_113) ?v_287)) (or (or P11 ?v_300) ?v_264)) (or (or ?v_344 ?v_73) ?v_190)) (or (or ?v_225 ?v_200) ?v_114)) (or (or ?v_378 ?v_166) ?v_5)) (or (or ?v_301 ?v_232) ?v_75)) (or (or ?v_35 ?v_145) ?v_141)) (or (or ?v_345 ?v_339) ?v_17)) (or (or P26 P20) ?v_94)) (or (or ?v_250 ?v_241) P18)) (or (or ?v_165 ?v_317) ?v_97)) (or (or ?v_139 ?v_31) ?v_104)) (or (or ?v_164 ?v_343) ?v_193)) (or (or ?v_251 ?v_278) ?v_345)) (or (or ?v_52 ?v_122) ?v_259)) (or (or P3 ?v_313) ?v_255)) (or (or ?v_153 ?v_162) ?v_287)) (or (or ?v_216 P14) ?v_175)) (or (or ?v_57 ?v_208) ?v_335)) (or (or ?v_183 ?v_218) ?v_264)) (or (or ?v_216 P16) ?v_195)) (or (or ?v_235 P27) ?v_251)) (or (or ?v_287 ?v_331) ?v_325)) (or (or ?v_93 ?v_196) ?v_325)) (or (or ?v_35 ?v_328) ?v_121)) (or (or ?v_155 ?v_298) ?v_174)) (or (or ?v_300 ?v_200) ?v_180)) (or (or ?v_318 ?v_320) ?v_267)) (or (or ?v_323 ?v_113) ?v_346)) (or (or P15 P29) ?v_157)) (or (or ?v_207 ?v_162) ?v_205)) (or (or ?v_285 ?v_54) ?v_337)) (or (or ?v_164 ?v_5) ?v_347)) (or (or ?v_327 ?v_293) ?v_188)) (or (or ?v_348 ?v_138) ?v_3)) (or (or ?v_335 ?v_207) ?v_184)) (or (or ?v_251 ?v_135) ?v_113)) (or (or ?v_46 ?v_35) ?v_118)) (or (or ?v_216 ?v_72) ?v_5)) (or (or ?v_183 ?v_35) ?v_140)) (or (or ?v_45 ?v_152) ?v_264)) (or (or ?v_111 ?v_307) ?v_75)) (or (or ?v_298 ?v_223) ?v_259)) (or (or ?v_256 ?v_349) ?v_164)) (or (or ?v_180 P13) ?v_244)) (or (or ?v_81 ?v_325) ?v_237)) (or (or ?v_114 ?v_17) P13)) (or (or ?v_229 P2) ?v_235)) (or (or ?v_190 ?v_72) ?v_164)) (or (or ?v_148 ?v_319) ?v_54)) (or (or ?v_140 ?v_350) ?v_216)) (or (or ?v_51 ?v_65) ?v_185)) (or (or ?v_2 ?v_117) ?v_292)) (or (or ?v_142 ?v_213) ?v_311)) (or (or ?v_309 P5) P17)) (or (or P19 ?v_362) ?v_304)) (or (or ?v_26 ?v_181) ?v_268)) (or (or ?v_341 ?v_124) ?v_344)) (or (or ?v_144 ?v_94) ?v_181)) (or (or ?v_224 ?v_314) ?v_351)) (or (or ?v_136 ?v_94) ?v_18)) (or (or ?v_315 ?v_191) ?v_211)) (or (or ?v_164 ?v_227) ?v_246)) (or (or ?v_185 ?v_148) ?v_336)) (or (or P2 ?v_105) ?v_139)) (or (or ?v_206 ?v_309) ?v_352)) (or (or P26 P13) ?v_86)) (or (or ?v_363 P3) ?v_338)) (or (or ?v_142 ?v_340) ?v_52)) (or (or ?v_241 ?v_263) ?v_346)) (or (or ?v_312 ?v_224) ?v_242)) (or (or ?v_22 ?v_315) P9)) (or (or ?v_352 ?v_353) ?v_339)) (or (or ?v_301 ?v_100) ?v_119)) (or (or ?v_276 ?v_93) ?v_235)) (or (or ?v_353 ?v_361) ?v_271)) (or (or ?v_77 ?v_198) ?v_94)) (or (or ?v_327 ?v_257) ?v_121)) (or (or ?v_140 ?v_355) ?v_356)) (or (or ?v_93 ?v_221) ?v_321)) (or (or ?v_154 ?v_357) ?v_208)) (or (or ?v_329 P3) ?v_316)) (or (or ?v_240 ?v_3) ?v_232)) (or (or ?v_342 ?v_158) ?v_319)) (or (or ?v_206 ?v_210) ?v_156)) (or (or ?v_324 ?v_358) ?v_355)) (or (or ?v_346 ?v_269) ?v_151)) (or (or ?v_333 ?v_78) ?v_266)) (or (or (not ?v_326) ?v_256) ?v_274)) (or (or ?v_359 ?v_186) ?v_242)) (or (or ?v_117 ?v_19) ?v_325)) (or (or ?v_323 ?v_331) ?v_135)) (or (or P27 ?v_138) ?v_253)) (or (or ?v_137 P21) ?v_172)) (or (or ?v_228 ?v_319) ?v_162)) (or (or P8 ?v_2) ?v_5)) (or (or ?v_64 ?v_283) ?v_346)) (or (or ?v_221 ?v_360) ?v_232)) (or (or ?v_120 ?v_181) ?v_346)) (or (or P17 ?v_104) P7)) (or (or ?v_172 ?v_315) ?v_65)) (or (or P23 ?v_269) ?v_160)) (or (or ?v_26 ?v_150) ?v_136)) (or (or ?v_201 ?v_339) ?v_285)) (or (or ?v_130 ?v_1) ?v_330)) (or (or ?v_226 ?v_60) ?v_152)) (or (or ?v_17 ?v_219) ?v_211)) (or (or ?v_202 ?v_336) ?v_285)) (or (or ?v_278 ?v_361) ?v_201)) (or (or P3 ?v_263) ?v_199)) (or (or ?v_211 ?v_145) ?v_144)) (or (or ?v_246 ?v_137) ?v_206)) (or (or ?v_334 ?v_233) ?v_122)) (or (or ?v_189 ?v_90) P20)) (or (or ?v_158 ?v_89) ?v_100)) (or (or ?v_160 ?v_64) ?v_239)) (or (or ?v_141 ?v_260) ?v_137)) (or (or ?v_112 P27) ?v_118)) (or (or ?v_314 ?v_212) ?v_132)) (or (or ?v_362 ?v_236) ?v_342)) (or (or ?v_114 ?v_164) ?v_93)) (or (or ?v_251 ?v_223) ?v_269)) (or (or ?v_182 ?v_292) ?v_228)) (or (or ?v_360 ?v_26) ?v_363)) (or (or ?v_341 ?v_220) P8)) (or (or ?v_147 ?v_77) ?v_26)) (or (or ?v_363 ?v_264) ?v_21)) (or (or P13 ?v_192) ?v_138)) (or (or ?v_326 ?v_270) ?v_180)) (or (or ?v_135 ?v_192) ?v_189)) (or (or ?v_77 ?v_270) ?v_287)) (or (or ?v_262 ?v_132) ?v_250)) (or (or ?v_279 ?v_43) P27)) (or (or ?v_70 ?v_194) ?v_341)) (or (or ?v_321 ?v_209) ?v_181)) (or (or ?v_270 ?v_289) ?v_176)) (or (or ?v_358 ?v_86) ?v_343)) (or (or ?v_326 ?v_364) ?v_294)) (or (or ?v_59 P12) P27)) (or (or ?v_218 ?v_307) ?v_58)) (or (or ?v_283 P12) ?v_218)) (or (or ?v_317 ?v_132) ?v_376)) (or (or ?v_221 ?v_232) ?v_160)) (or (or ?v_224 ?v_133) ?v_285)) (or (or ?v_314 ?v_265) ?v_365)) (or (or ?v_313 ?v_231) ?v_93)) (or (or ?v_61 ?v_120) ?v_175)) (or (or ?v_318 P14) ?v_357)) (or (or ?v_202 ?v_312) P16)) (or (or ?v_151 ?v_366) ?v_313)) (or (or ?v_17 ?v_22) ?v_121)) (or (or ?v_322 ?v_57) ?v_297)) (or (or ?v_19 ?v_300) ?v_278)) (or (or ?v_352 ?v_22) ?v_107)) (or (or ?v_192 ?v_31) ?v_54)) (or (or ?v_367 ?v_353) ?v_141)) (or (or ?v_218 ?v_330) ?v_322)) (or (or ?v_362 ?v_208) ?v_175)) (or (or ?v_303 ?v_235) ?v_170)) (or (or ?v_254 ?v_209) ?v_368)) (or (or ?v_128 ?v_113) ?v_243)) (or (or ?v_1 ?v_137) ?v_86)) (or (or ?v_241 P9) ?v_232)) (or (or ?v_286 ?v_369) ?v_257)) (or (or ?v_369 ?v_36) ?v_214)) (or (or ?v_164 ?v_365) ?v_284)) (or (or ?v_42 ?v_273) ?v_332)) (or (or ?v_90 ?v_80) ?v_321)) (or (or P15 P3) ?v_317)) (or (or ?v_279 ?v_210) ?v_290)) (or (or ?v_328 ?v_227) ?v_168)) (or (or ?v_319 ?v_290) ?v_236)) (or (or ?v_361 ?v_216) ?v_302)) (or (or ?v_158 ?v_315) ?v_370)) (or (or ?v_170 ?v_207) ?v_313)) (or (or ?v_365 P23) ?v_371)) (or (or ?v_222 ?v_124) ?v_221)) (or (or P25 P29) ?v_149)) (or (or ?v_52 ?v_26) ?v_71)) (or (or ?v_171 ?v_192) ?v_283)) (or (or ?v_51 ?v_227) ?v_151)) (or (or ?v_269 P8) ?v_372)) (or (or ?v_161 ?v_218) ?v_138)) (or (or ?v_337 P4) ?v_363)) (or (or ?v_345 ?v_241) ?v_351)) (or (or ?v_224 ?v_43) ?v_243)) (or (or ?v_206 ?v_321) ?v_104)) (or (or ?v_165 ?v_330) ?v_2)) (or (or ?v_369 ?v_373) ?v_129)) (or (or ?v_264 ?v_352) ?v_372)) (or (or ?v_350 ?v_165) ?v_84)) (or (or ?v_237 ?v_149) ?v_112)) (or (or ?v_316 ?v_151) ?v_296)) (or (or ?v_83 P25) ?v_261)) (or (or ?v_347 ?v_357) ?v_246)) (or (or ?v_176 ?v_74) ?v_219)) (or (or ?v_78 ?v_325) ?v_80)) (or (or ?v_291 ?v_135) ?v_250)) (or (or ?v_342 ?v_295) ?v_158)) (or (or ?v_330 ?v_117) ?v_369)) (or (or ?v_19 ?v_333) ?v_323)) (or (or ?v_331 ?v_60) ?v_165)) (or (or ?v_366 ?v_112) ?v_164)) (or (or ?v_2 ?v_18) ?v_342)) (or (or ?v_327 ?v_251) ?v_272)) (or (or ?v_167 ?v_149) ?v_226)) (or (or ?v_245 ?v_242) ?v_95)) (or (or ?v_88 ?v_65) ?v_181)) (or (or P27 ?v_159) ?v_204)) (or (or ?v_316 ?v_90) ?v_319)) (or (or ?v_115 ?v_156) ?v_201)) (or (or ?v_45 ?v_266) ?v_319)) (or (or ?v_101 ?v_147) P18)) (or (or ?v_111 P10) ?v_184)) (or (or ?v_63 ?v_322) ?v_227)) (or (or ?v_167 ?v_120) P7)) (or (or ?v_269 ?v_99) ?v_374)) (or (or ?v_176 ?v_253) ?v_374)) (or (or P28 P10) ?v_70)) (or (or ?v_329 ?v_375) ?v_196)) (or (or ?v_335 ?v_157) ?v_365)) (or (or ?v_272 ?v_263) ?v_367)) (or (or ?v_42 P24) P20)) (or (or ?v_342 P20) ?v_375)) (or (or ?v_223 ?v_126) ?v_277)) (or (or ?v_308 ?v_157) ?v_77)) (or (or ?v_71 ?v_372) ?v_63)) (or (or ?v_145 ?v_243) ?v_206)) (or (or ?v_140 ?v_43) ?v_321)) (or (or P7 ?v_344) ?v_156)) (or (or ?v_186 ?v_18) ?v_51)) (or (or ?v_79 ?v_363) P3)) (or (or ?v_152 ?v_130) ?v_292)) (or (or ?v_117 ?v_189) P25)) (or (or ?v_320 ?v_365) ?v_84)) (or (or ?v_252 ?v_227) ?v_73)) (or (or ?v_315 ?v_227) ?v_334)) (or (or ?v_197 ?v_344) ?v_278)) (or (or ?v_78 ?v_78) ?v_357)) (or (or ?v_179 ?v_125) ?v_163)) (or (or ?v_117 ?v_124) ?v_187)) (or (or P14 ?v_326) ?v_376)) (or (or ?v_318 P20) ?v_261)) (or (or ?v_258 ?v_264) ?v_200)) (or (or ?v_50 ?v_290) ?v_114)) (or (or ?v_332 ?v_377) ?v_189)) (or (or ?v_53 ?v_156) ?v_328)) (or (or ?v_117 ?v_74) ?v_355)) (or (or ?v_304 ?v_151) ?v_135)) (or (or ?v_346 ?v_237) ?v_375)) (or (or ?v_60 ?v_36) ?v_31)) (or (or ?v_378 ?v_246) ?v_151)) (or (or ?v_186 ?v_115) ?v_64)) (or (or ?v_278 ?v_78) ?v_333)) (or (or ?v_109 ?v_216) ?v_323)) (or (or ?v_347 ?v_334) ?v_22)) (or (or ?v_310 ?v_195) ?v_125)) (or (or P20 ?v_57) ?v_253)) (or (or ?v_168 ?v_204) ?v_254)) (or (or ?v_189 ?v_295) ?v_146)) (or (or ?v_333 ?v_97) P5)) (or (or ?v_246 ?v_270) ?v_273)) (or (or ?v_33 P20) ?v_347)) (or (or ?v_88 ?v_242) ?v_378)) (or (or P0 ?v_31) ?v_214)) (or (or P11 ?v_367) P25)) (or (or ?v_118 P5) ?v_155)) (or (or ?v_205 ?v_263) ?v_339)) (or (or ?v_320 P8) ?v_329)) (or (or P17 ?v_11) ?v_165)) (or (or ?v_364 P18) ?v_180)) (or (or ?v_274 ?v_348) ?v_235)) (or (or ?v_142 ?v_303) ?v_289)) (or (or P28 ?v_157) ?v_151)) (or (or ?v_18 ?v_172) P9)) (or (or ?v_353 ?v_33) ?v_275)) (or (or ?v_209 ?v_230) ?v_272)) (or (or ?v_208 ?v_1) ?v_45)) (or (or ?v_147 ?v_349) ?v_356)) (or (or ?v_225 ?v_184) ?v_164)) (or (or ?v_19 ?v_179) ?v_89)) (or (or ?v_85 ?v_303) P12)) (or (or ?v_155 ?v_349) ?v_378)) (or (or ?v_359 ?v_371) ?v_236)) (or (or ?v_208 ?v_241) ?v_239)) (or (or ?v_336 ?v_338) ?v_166)) (or (or ?v_187 ?v_189) ?v_333)) (or (or P1 ?v_330) ?v_182)) (or (or ?v_333 P28) P12)) (or (or ?v_275 ?v_369) ?v_181)) (or (or ?v_216 ?v_164) ?v_331)) (or (or ?v_160 ?v_240) ?v_311)) (or (or ?v_129 P19) ?v_124)) (or (or ?v_90 ?v_136) ?v_284)) (or (or ?v_202 P16) ?v_204)) (or (or ?v_351 ?v_322) ?v_101)) (or (or ?v_179 ?v_175) ?v_321)) (or (or ?v_157 ?v_355) ?v_159)) (or (or ?v_132 ?v_2) ?v_314)) (or (or ?v_344 ?v_320) ?v_190)) (or (or ?v_83 ?v_107) ?v_270)) (or (or ?v_191 ?v_26) ?v_342)) (or (or P8 ?v_243) ?v_117)) (or (or ?v_350 ?v_376) ?v_217)) (or (or P1 ?v_117) ?v_135)) (or (or ?v_206 ?v_340) ?v_236)) (or (or ?v_229 P4) ?v_346)) (or (or ?v_377 ?v_155) ?v_250)) (or (or ?v_119 ?v_220) ?v_46)) (or (or ?v_216 ?v_335) ?v_50)) (or (or ?v_345 ?v_146) ?v_360)) (or (or ?v_26 ?v_80) ?v_67)) (or (or P24 ?v_3) ?v_195)) (or (or ?v_86 ?v_352) ?v_226)) (or (or ?v_204 ?v_322) ?v_134)) (or (or ?v_137 ?v_80) ?v_124)) (or (or ?v_145 ?v_369) ?v_170)) (or (or ?v_122 ?v_172) ?v_213)) (or (or ?v_187 ?v_17) P23)) (or (or ?v_313 ?v_314) ?v_170)) (or (or ?v_135 ?v_220) ?v_50)) (or (or ?v_95 ?v_379) ?v_17)) (or (or ?v_312 ?v_253) ?v_256)) (or (or ?v_113 ?v_207) ?v_291)) (or (or ?v_79 ?v_270) ?v_287)) (or (or ?v_151 ?v_50) ?v_109)) (or (or ?v_376 ?v_19) ?v_171)) (or (or ?v_253 ?v_186) ?v_166)) (or (or P2 ?v_230) ?v_308)) (or (or ?v_311 ?v_330) ?v_50)) (or (or ?v_185 ?v_212) ?v_35)) (or (or ?v_153 ?v_53) P9)) (or (or P22 ?v_90) ?v_305)) (or (or ?v_3 ?v_22) ?v_326)) (or (or ?v_95 ?v_326) ?v_60)) (or (or ?v_80 ?v_367) ?v_11)) (or (or ?v_114 ?v_378) ?v_257)) (or (or ?v_167 ?v_153) ?v_181)) (or (or ?v_251 ?v_73) ?v_61)) (or (or ?v_231 ?v_104) ?v_290)) (or (or ?v_194 ?v_333) ?v_131)) (or (or ?v_209 ?v_231) ?v_59)) (or (or ?v_59 ?v_237) ?v_253)) (or (or ?v_145 ?v_371) P7)) (or (or ?v_11 ?v_78) ?v_366)) (or (or ?v_240 ?v_35) P6)) (or (or ?v_60 ?v_108) ?v_317)) (or (or ?v_229 ?v_185) P4)) (or (or ?v_354 ?v_117) ?v_264)) (or (or ?v_145 ?v_166) ?v_236)) (or (or ?v_89 P7) ?v_135)) (or (or P25 ?v_110) ?v_228)) (or (or ?v_325 ?v_261) ?v_217)) (or (or ?v_174 ?v_81) ?v_305)) (or (or P25 ?v_113) ?v_53)) (or (or ?v_229 ?v_340) ?v_243)) (or (or ?v_366 ?v_80) ?v_226)) (or (or ?v_64 ?v_205) ?v_363)) (or (or ?v_35 ?v_150) ?v_311)) (or (or ?v_236 ?v_295) ?v_88)) (or (or P11 ?v_151) ?v_239)) (or (or ?v_303 ?v_327) ?v_64)) (or (or ?v_149 ?v_245) P9)) (or (or ?v_251 ?v_366) ?v_244)) (or (or ?v_263 ?v_241) ?v_124)) (or (or ?v_288 ?v_367) ?v_251)) (or (or ?v_90 ?v_188) ?v_140)) (or (or ?v_78 ?v_225) ?v_324)) (or (or ?v_173 ?v_258) P26)) (or (or ?v_173 ?v_72) ?v_67)) (or (or ?v_85 ?v_43) ?v_117)) (or (or ?v_334 ?v_189) ?v_125)) (or (or ?v_192 ?v_320) ?v_19)) (or (or ?v_166 ?v_365) P0)) (or (or ?v_337 ?v_214) P5)) (or (or P5 ?v_213) ?v_252)) (or (or ?v_359 P6) ?v_334)) (or (or ?v_107 ?v_170) ?v_124)) (or (or P11 ?v_158) ?v_115)) (or (or P25 P24) ?v_362)) (or (or ?v_243 ?v_180) ?v_63)) (or (or ?v_138 ?v_305) ?v_271)) (or (or ?v_111 ?v_189) ?v_328)) (or (or ?v_145 ?v_60) ?v_52)) (or (or ?v_217 ?v_189) ?v_216)) (or (or ?v_217 ?v_275) ?v_321)) (or (or ?v_3 ?v_322) ?v_221)) (or (or ?v_262 ?v_341) ?v_121)) (or (or P7 ?v_361) ?v_216)) (or (or ?v_253 ?v_165) P15)) (or (or ?v_197 ?v_331) ?v_36)) (or (or ?v_196 ?v_132) ?v_200)) (or (or ?v_125 ?v_149) (not ?v_338))) (or (or ?v_85 ?v_211) ?v_308)) (or (or ?v_372 ?v_33) ?v_345))))))))))))))))))))))))))))))))))))))))))))))))))))))))))))))))))))))))))))))))
(check-sat)
(exit)
